NAME : morphed22-2-22
COMMENT : Generated using the function morphInstances from the R-package netgen (Bossek,2015) - Number of clusters: 2 Alpha: 0.5
TYPE : TSP
DIMENSION : 22
EDGE_WEIGHT_TYPE : EUC_2D
NODE_COORD_SECTION
1 22.0546035434 58.2930284555
2 30.0276688904 74.8891435695
3 77.7175073965 60.9302369506
4 26.0600483009 83.9120615566
5 68.8760658578 42.5703817933
6 36.3007719356 90.7826634435
7 58.3513823569 24.3696486621
8 67.8223474996 26.8346765344
9 45.0581632221 23.8287878446
10 41.5241905259 33.2150491152
11 61.4160132708 76.5776812889
12 55.3229536805 21.1822270568
13 23.8388934716 92.2585898285
14 72.5135732302 14.307134501
15 23.2120331111 76.2929364939
16 5.0194704898 28.9647603329
17 46.1094555918 13.9572885291
18 8.8247633475 54.4448084744
19 58.468396483 30.1191149691
20 25.5799664941 52.037526864
21 12.3900517879 59.1760670879
22 41.5940034469 12.3853778692
EOF
